NAME 
ROWS
 N  OBJ
 L  R0      
 L  R1      
 L  R2      
 E  R3      
 E  R4      
 E  R5      
 E  R6      
 E  R7      
 E  R8      
 E  R9      
 E  R10     
 E  R11     
 E  R12     
 E  R13     
 E  R14     
 E  R15     
 E  R16     
 E  R17     
 E  R18     
 E  R19     
 E  R20     
 E  R21     
 E  R22     
 E  R23     
 E  R24     
 E  R25     
 E  R26     
 E  R27     
COLUMNS
    MARKER    'MARKER'                 'INTORG'
    I0(13)    OBJ       -62
    I0(13)    R0        -98
    I0(13)    R1        -21
    I0(13)    R2        -57
    I0(13)    R3        11
    I0(13)    R4        10
    I0(13)    R5        4
    I0(13)    R6        1
    I0(13)    R7        11
    I0(13)    R8        17
    I0(13)    R9        3
    I0(13)    R11       3
    I0(13)    R12       18
    I0(13)    R27       1
    I1(13)    OBJ       195
    I1(13)    R0        194
    I1(13)    R1        46
    I1(13)    R2        28
    I1(13)    R3        8
    I1(13)    R5        12
    I1(13)    R6        13
    I1(13)    R8        5
    I1(13)    R9        9
    I1(13)    R10       8
    I1(13)    R11       9
    I1(13)    R12       8
    I1(13)    R14       14
    I1(13)    R27       1
    I2(13)    OBJ       -24
    I2(13)    R0        140
    I2(13)    R1        100
    I2(13)    R2        143
    I2(13)    R3        18
    I2(13)    R4        1
    I2(13)    R6        11
    I2(13)    R7        1
    I2(13)    R8        8
    I2(13)    R9        1
    I2(13)    R10       -1
    I2(13)    R11       11
    I2(13)    R13       3
    I2(13)    R27       1
    I3(12)    OBJ       190
    I3(12)    R0        -33
    I3(12)    R1        -64
    I3(12)    R2        119
    I3(12)    R4        10
    I3(12)    R5        3
    I3(12)    R6        -1
    I3(12)    R7        18
    I3(12)    R8        7
    I3(12)    R9        16
    I3(12)    R10       9
    I3(12)    R11       8
    I3(12)    R27       1
    I4(16)    OBJ       37
    I4(16)    R0        187
    I4(16)    R1        19
    I4(16)    R2        -127
    I4(16)    R3        9
    I4(16)    R4        19
    I4(16)    R5        3
    I4(16)    R6        18
    I4(16)    R7        5
    I4(16)    R8        14
    I4(16)    R9        9
    I4(16)    R10       18
    I4(16)    R11       3
    I4(16)    R12       -1
    I4(16)    R13       3
    I4(16)    R14       8
    I4(16)    R27       1
    I5(14)    OBJ       -141
    I5(14)    R0        123
    I5(14)    R1        22
    I5(14)    R2        121
    I5(14)    R3        4
    I5(14)    R4        15
    I5(14)    R5        3
    I5(14)    R6        14
    I5(14)    R7        12
    I5(14)    R8        16
    I5(14)    R9        5
    I5(14)    R10       11
    I5(14)    R12       9
    I5(14)    R14       10
    I5(14)    R27       1
    I6(15)    OBJ       162
    I6(15)    R0        -86
    I6(15)    R1        44
    I6(15)    R2        -136
    I6(15)    R3        3
    I6(15)    R4        -1
    I6(15)    R5        13
    I6(15)    R7        19
    I6(15)    R8        5
    I6(15)    R9        9
    I6(15)    R10       19
    I6(15)    R11       15
    I6(15)    R12       12
    I6(15)    R13       19
    I6(15)    R14       17
    I6(15)    R27       1
    I7(14)    OBJ       26
    I7(14)    R0        119
    I7(14)    R1        84
    I7(14)    R2        39
    I7(14)    R3        16
    I7(14)    R4        12
    I7(14)    R5        -1
    I7(14)    R6        10
    I7(14)    R7        9
    I7(14)    R10       12
    I7(14)    R11       6
    I7(14)    R12       14
    I7(14)    R13       4
    I7(14)    R14       13
    I7(14)    R27       1
    I8(15)    OBJ       160
    I8(15)    R0        -75
    I8(15)    R1        -148
    I8(15)    R2        190
    I8(15)    R3        4
    I8(15)    R4        2
    I8(15)    R5        1
    I8(15)    R6        19
    I8(15)    R7        7
    I8(15)    R8        16
    I8(15)    R9        12
    I8(15)    R10       12
    I8(15)    R11       -1
    I8(15)    R12       14
    I8(15)    R14       13
    I8(15)    R27       1
    I9(14)    OBJ       -156
    I9(14)    R0        84
    I9(14)    R1        96
    I9(14)    R2        -61
    I9(14)    R3        2
    I9(14)    R4        7
    I9(14)    R6        4
    I9(14)    R7        14
    I9(14)    R8        12
    I9(14)    R10       18
    I9(14)    R11       8
    I9(14)    R12       12
    I9(14)    R13       5
    I9(14)    R14       11
    I9(14)    R27       1
    I10(13)   OBJ       -12
    I10(13)   R0        -85
    I10(13)   R1        179
    I10(13)   R2        59
    I10(13)   R3        12
    I10(13)   R4        16
    I10(13)   R5        9
    I10(13)   R6        16
    I10(13)   R7        16
    I10(13)   R9        14
    I10(13)   R10       11
    I10(13)   R11       13
    I10(13)   R12       4
    I10(13)   R27       1
    I11(12)   OBJ       -11
    I11(12)   R0        -50
    I11(12)   R1        33
    I11(12)   R2        196
    I11(12)   R3        7
    I11(12)   R5        16
    I11(12)   R6        7
    I11(12)   R7        -1
    I11(12)   R8        19
    I11(12)   R9        13
    I11(12)   R12       6
    I11(12)   R13       7
    I11(12)   R27       1
    MARKER    'MARKER'                 'INTEND'
    C12(20)   OBJ       3
    C12(20)   R0        -9
    C12(20)   R1        -8
    C12(20)   R2        -4
    C12(20)   R3        10
    C12(20)   R5        3
    C12(20)   R6        8
    C12(20)   R8        5
    C12(20)   R9        1
    C12(20)   R12       5
    C12(20)   R13       14
    C12(20)   R15       13
    C12(20)   R17       -1
    C12(20)   R18       16
    C12(20)   R19       17
    C12(20)   R20       19
    C12(20)   R21       5
    C12(20)   R22       9
    C12(20)   R23       8
    C12(20)   R25       16
    C12(20)   R26       2
    C13(24)   OBJ       7
    C13(24)   R0        -6
    C13(24)   R1        5
    C13(24)   R2        -10
    C13(24)   R3        10
    C13(24)   R4        8
    C13(24)   R6        16
    C13(24)   R7        19
    C13(24)   R8        19
    C13(24)   R9        5
    C13(24)   R10       13
    C13(24)   R12       9
    C13(24)   R13       2
    C13(24)   R14       2
    C13(24)   R15       9
    C13(24)   R16       10
    C13(24)   R17       14
    C13(24)   R18       6
    C13(24)   R19       18
    C13(24)   R21       9
    C13(24)   R22       6
    C13(24)   R23       10
    C13(24)   R24       18
    C13(24)   R25       10
    C13(24)   R26       15
    C14(23)   OBJ       -8
    C14(23)   R0        -4
    C14(23)   R1        3
    C14(23)   R2        -10
    C14(23)   R3        2
    C14(23)   R4        3
    C14(23)   R6        10
    C14(23)   R7        15
    C14(23)   R8        1
    C14(23)   R10       2
    C14(23)   R11       9
    C14(23)   R12       6
    C14(23)   R13       17
    C14(23)   R14       17
    C14(23)   R15       17
    C14(23)   R16       9
    C14(23)   R18       17
    C14(23)   R19       11
    C14(23)   R20       9
    C14(23)   R21       13
    C14(23)   R22       3
    C14(23)   R23       16
    C14(23)   R24       8
    C14(23)   R26       3
    C15(20)   OBJ       3
    C15(20)   R1        5
    C15(20)   R2        5
    C15(20)   R4        18
    C15(20)   R6        11
    C15(20)   R7        14
    C15(20)   R8        19
    C15(20)   R10       7
    C15(20)   R13       15
    C15(20)   R14       1
    C15(20)   R16       2
    C15(20)   R17       8
    C15(20)   R18       1
    C15(20)   R19       19
    C15(20)   R20       15
    C15(20)   R21       6
    C15(20)   R22       -1
    C15(20)   R23       3
    C15(20)   R24       18
    C15(20)   R25       17
    C15(20)   R26       3
    C16(23)   OBJ       -8
    C16(23)   R0        5
    C16(23)   R1        -5
    C16(23)   R3        -1
    C16(23)   R4        6
    C16(23)   R5        19
    C16(23)   R6        -1
    C16(23)   R8        6
    C16(23)   R10       16
    C16(23)   R11       6
    C16(23)   R12       18
    C16(23)   R13       15
    C16(23)   R15       9
    C16(23)   R16       -1
    C16(23)   R17       10
    C16(23)   R18       12
    C16(23)   R19       -1
    C16(23)   R20       2
    C16(23)   R21       5
    C16(23)   R22       9
    C16(23)   R23       11
    C16(23)   R24       9
    C16(23)   R25       -1
    C16(23)   R26       16
    C17(21)   OBJ       8
    C17(21)   R0        3
    C17(21)   R1        7
    C17(21)   R2        -10
    C17(21)   R3        17
    C17(21)   R4        7
    C17(21)   R5        17
    C17(21)   R6        1
    C17(21)   R7        8
    C17(21)   R8        15
    C17(21)   R9        17
    C17(21)   R10       10
    C17(21)   R11       -1
    C17(21)   R12       10
    C17(21)   R13       6
    C17(21)   R15       5
    C17(21)   R18       10
    C17(21)   R19       19
    C17(21)   R20       9
    C17(21)   R22       17
    C17(21)   R23       1
    C17(21)   R25       2
    C18(22)   OBJ       -2
    C18(22)   R0        -6
    C18(22)   R1        1
    C18(22)   R2        -8
    C18(22)   R3        15
    C18(22)   R4        6
    C18(22)   R5        10
    C18(22)   R7        15
    C18(22)   R8        10
    C18(22)   R9        10
    C18(22)   R10       19
    C18(22)   R11       15
    C18(22)   R12       10
    C18(22)   R14       1
    C18(22)   R16       15
    C18(22)   R18       18
    C18(22)   R20       16
    C18(22)   R21       3
    C18(22)   R22       9
    C18(22)   R23       9
    C18(22)   R24       5
    C18(22)   R25       -1
    C18(22)   R26       10
    C19(21)   OBJ       6
    C19(21)   R0        -1
    C19(21)   R1        8
    C19(21)   R2        -1
    C19(21)   R3        6
    C19(21)   R4        16
    C19(21)   R5        14
    C19(21)   R8        15
    C19(21)   R9        18
    C19(21)   R10       12
    C19(21)   R11       3
    C19(21)   R12       3
    C19(21)   R13       9
    C19(21)   R14       18
    C19(21)   R15       3
    C19(21)   R18       12
    C19(21)   R19       7
    C19(21)   R21       7
    C19(21)   R22       5
    C19(21)   R23       14
    C19(21)   R24       15
    C19(21)   R25       10
    C20(18)   OBJ       -4
    C20(18)   R1        -10
    C20(18)   R2        -1
    C20(18)   R4        9
    C20(18)   R5        2
    C20(18)   R6        10
    C20(18)   R8        -1
    C20(18)   R9        5
    C20(18)   R10       -1
    C20(18)   R11       18
    C20(18)   R12       6
    C20(18)   R13       13
    C20(18)   R16       18
    C20(18)   R17       14
    C20(18)   R18       9
    C20(18)   R21       6
    C20(18)   R23       4
    C20(18)   R25       10
    C20(18)   R26       10
    C21(19)   OBJ       9
    C21(19)   R0        4
    C21(19)   R1        -10
    C21(19)   R2        1
    C21(19)   R3        16
    C21(19)   R4        9
    C21(19)   R5        11
    C21(19)   R6        3
    C21(19)   R8        11
    C21(19)   R9        18
    C21(19)   R11       15
    C21(19)   R12       10
    C21(19)   R13       12
    C21(19)   R15       1
    C21(19)   R18       15
    C21(19)   R19       17
    C21(19)   R20       -1
    C21(19)   R21       10
    C21(19)   R25       7
    C21(19)   R26       11
    C22(23)   R0        1
    C22(23)   R1        5
    C22(23)   R2        1
    C22(23)   R3        19
    C22(23)   R4        14
    C22(23)   R5        7
    C22(23)   R7        -1
    C22(23)   R8        13
    C22(23)   R9        14
    C22(23)   R10       7
    C22(23)   R11       3
    C22(23)   R12       17
    C22(23)   R13       7
    C22(23)   R14       17
    C22(23)   R15       2
    C22(23)   R16       16
    C22(23)   R17       5
    C22(23)   R21       17
    C22(23)   R22       1
    C22(23)   R23       9
    C22(23)   R24       11
    C22(23)   R25       10
    C22(23)   R26       -1
    C23(26)   R0        1
    C23(26)   R1        -3
    C23(26)   R2        2
    C23(26)   R3        4
    C23(26)   R4        5
    C23(26)   R5        18
    C23(26)   R6        4
    C23(26)   R7        1
    C23(26)   R8        3
    C23(26)   R9        13
    C23(26)   R10       1
    C23(26)   R11       6
    C23(26)   R12       6
    C23(26)   R13       8
    C23(26)   R14       16
    C23(26)   R15       9
    C23(26)   R16       9
    C23(26)   R17       13
    C23(26)   R18       4
    C23(26)   R19       17
    C23(26)   R20       -1
    C23(26)   R21       6
    C23(26)   R23       8
    C23(26)   R24       14
    C23(26)   R25       1
    C23(26)   R26       17
    C24(23)   OBJ       -3
    C24(23)   R0        -4
    C24(23)   R1        -2
    C24(23)   R2        -5
    C24(23)   R3        2
    C24(23)   R4        3
    C24(23)   R6        18
    C24(23)   R7        18
    C24(23)   R8        9
    C24(23)   R9        16
    C24(23)   R10       9
    C24(23)   R11       12
    C24(23)   R12       2
    C24(23)   R13       10
    C24(23)   R14       8
    C24(23)   R15       15
    C24(23)   R16       7
    C24(23)   R17       -1
    C24(23)   R19       9
    C24(23)   R21       7
    C24(23)   R22       19
    C24(23)   R23       6
    C24(23)   R24       15
    C24(23)   R26       4
    C25(1)    R3        1
    C26(1)    R4        1
    C27(1)    R5        1
    C28(1)    R6        1
    C29(1)    R7        1
    C30(1)    R8        1
    C31(1)    R9        1
    C32(1)    R10       1
    C33(1)    R11       1
    C34(1)    R12       1
    C35(1)    R13       1
    C36(1)    R14       1
    C37(1)    R15       1
    C38(1)    R16       1
    C39(1)    R17       1
    C40(1)    R18       1
    C41(1)    R19       1
    C42(1)    R20       1
    C43(1)    R21       1
    C44(1)    R22       1
    C45(1)    R23       1
    C46(1)    R24       1
    C47(1)    R25       1
    C48(1)    R26       1
    C49(1)    R27       1
RHS
    RHS1      R0        4.1720175438596493e+02
    RHS1      R1        2.1437719298245614e+02
    RHS1      R2        1.1815789473684211e+02
    RHS1      R3        53
    RHS1      R4        96
    RHS1      R5        80
    RHS1      R6        99
    RHS1      R7        52
    RHS1      R8        58
    RHS1      R9        99
    RHS1      R10       88
    RHS1      R11       53
    RHS1      R12       70
    RHS1      R13       55
    RHS1      R14       50
    RHS1      R15       89
    RHS1      R16       90
    RHS1      R17       80
    RHS1      R18       98
    RHS1      R19       60
    RHS1      R20       85
    RHS1      R21       86
    RHS1      R22       55
    RHS1      R23       50
    RHS1      R24       61
    RHS1      R25       64
    RHS1      R26       76
    RHS1      R27       4
BOUNDS
 UP BND1      I0(13)    2
 UP BND1      I1(13)    2
 UP BND1      I2(13)    2
 UP BND1      I3(12)    2
 UP BND1      I4(16)    2
 UP BND1      I5(14)    2
 UP BND1      I6(15)    2
 UP BND1      I7(14)    2
 UP BND1      I8(15)    2
 UP BND1      I9(14)    2
 UP BND1      I10(13)   2
 UP BND1      I11(12)   2
ENDATA
